NAME : Adapted from II file cube5.ii
COMMENT : 
TYPE : HCP
DIMENSION : 1002
EDGE_DATA_FORMAT : EDGE_LIST
EDGE_DATA_SECTION
1 2
1 1002
2 1
2 3
3 2
3 4
4 3
4 5
4 9
4 15
4 21
4 27
4 33
5 4
5 6
6 5
6 82
6 115
6 136
6 283
6 394
6 478
7 8
7 78
7 105
7 147
7 273
7 384
7 468
8 7
8 9
9 4
9 8
9 10
9 16
9 22
9 28
9 34
10 9
10 11
10 15
10 21
10 27
10 33
11 10
11 12
12 11
12 193
12 250
12 334
12 424
12 472
13 14
13 189
13 261
13 345
13 414
13 483
14 13
14 15
15 4
15 10
15 14
15 16
15 22
15 28
15 34
16 9
16 15
16 17
16 21
16 27
16 33
17 16
17 18
18 17
18 142
18 310
18 340
18 367
19 20
19 132
19 300
19 330
19 357
20 19
20 21
21 4
21 10
21 16
21 20
21 22
21 28
21 34
22 9
22 15
22 21
22 23
22 27
22 33
23 22
23 24
24 23
24 109
24 166
24 220
24 256
24 304
24 361
24 388
24 418
25 26
25 120
25 177
25 231
25 246
25 315
25 372
25 399
25 429
26 25
26 27
27 4
27 10
27 16
27 22
27 26
27 28
27 34
28 9
28 15
28 21
28 27
28 29
28 33
29 28
29 30
30 29
30 172
30 226
30 277
30 445
31 32
31 162
31 216
31 288
31 441
32 31
32 33
33 4
33 10
33 16
33 22
33 28
33 32
33 34
34 9
34 15
34 21
34 27
34 33
34 35
35 34
35 36
36 35
36 37
37 36
37 38
37 42
37 48
37 54
37 60
37 66
38 37
38 39
39 38
39 508
39 547
39 574
39 751
39 886
39 988
40 41
40 504
40 537
40 585
40 741
40 876
40 978
41 40
41 42
42 37
42 41
42 43
42 49
42 55
42 61
42 67
43 42
43 44
43 48
43 54
43 60
43 66
44 43
44 45
45 44
45 643
45 712
45 814
45 922
45 982
46 47
46 639
46 723
46 825
46 912
46 993
47 46
47 48
48 37
48 43
48 47
48 49
48 55
48 61
48 67
49 42
49 48
49 50
49 54
49 60
49 66
50 49
50 51
51 50
51 580
51 784
51 820
51 853
52 53
52 570
52 774
52 810
52 843
53 52
53 54
54 37
54 43
54 49
54 53
54 55
54 61
54 67
55 42
55 48
55 54
55 56
55 60
55 66
56 55
56 57
57 56
57 541
57 610
57 676
57 718
57 778
57 847
57 880
57 916
58 59
58 552
58 621
58 687
58 708
58 789
58 858
58 891
58 927
59 58
59 60
60 37
60 43
60 49
60 55
60 59
60 61
60 67
61 42
61 48
61 54
61 60
61 62
61 66
62 61
62 63
63 62
63 616
63 682
63 745
63 949
64 65
64 606
64 672
64 756
64 945
65 64
65 66
66 37
66 43
66 49
66 55
66 61
66 65
66 67
67 42
67 48
67 54
67 60
67 66
67 68
68 67
68 69
69 68
69 70
70 69
70 71
71 70
71 72
72 71
72 73
72 100
72 127
73 72
73 74
73 153
74 73
74 75
75 74
75 76
75 499
76 75
76 77
76 81
76 99
77 76
77 78
78 7
78 77
78 79
78 97
79 78
79 80
79 84
79 99
80 79
80 81
81 76
81 80
81 82
82 6
82 81
82 83
82 87
83 82
83 84
84 79
84 83
84 85
85 84
85 86
85 90
86 85
86 87
87 82
87 86
87 88
88 87
88 89
88 93
89 88
89 90
90 85
90 89
90 91
91 90
91 92
91 96
92 91
92 93
93 88
93 92
93 94
94 93
94 95
94 99
95 94
95 96
96 91
96 95
96 97
97 78
97 96
97 98
98 97
98 99
99 76
99 79
99 94
99 98
99 100
100 72
100 99
100 101
101 100
101 102
102 101
102 103
102 532
103 102
103 104
103 108
103 126
104 103
104 105
105 7
105 104
105 106
105 124
106 105
106 107
106 111
106 126
107 106
107 108
108 103
108 107
108 109
109 24
109 108
109 110
109 114
110 109
110 111
111 106
111 110
111 112
112 111
112 113
112 117
113 112
113 114
114 109
114 113
114 115
115 6
115 114
115 116
115 120
116 115
116 117
117 112
117 116
117 118
118 117
118 119
118 123
119 118
119 120
120 25
120 115
120 119
120 121
121 120
121 122
121 126
122 121
122 123
123 118
123 122
123 124
124 105
124 123
124 125
125 124
125 126
126 103
126 106
126 121
126 125
126 127
127 72
127 126
127 128
128 127
128 129
129 128
129 130
129 565
130 129
130 131
130 135
130 153
131 130
131 132
132 19
132 131
132 133
132 151
133 132
133 134
133 138
133 153
134 133
134 135
135 130
135 134
135 136
136 6
136 135
136 137
136 141
137 136
137 138
138 133
138 137
138 139
139 138
139 140
139 144
140 139
140 141
141 136
141 140
141 142
142 18
142 141
142 143
142 147
143 142
143 144
144 139
144 143
144 145
145 144
145 146
145 150
146 145
146 147
147 7
147 142
147 146
147 148
148 147
148 149
148 153
149 148
149 150
150 145
150 149
150 151
151 132
151 150
151 152
152 151
152 153
153 73
153 130
153 133
153 148
153 152
154 155
154 495
154 528
154 561
155 154
155 156
156 155
156 157
156 184
156 211
157 156
157 158
157 237
158 157
158 159
159 158
159 160
159 601
160 159
160 161
160 165
160 183
161 160
161 162
162 31
162 161
162 163
162 181
163 162
163 164
163 168
163 183
164 163
164 165
165 160
165 164
165 166
166 24
166 165
166 167
166 171
167 166
167 168
168 163
168 167
168 169
169 168
169 170
169 174
170 169
170 171
171 166
171 170
171 172
172 30
172 171
172 173
172 177
173 172
173 174
174 169
174 173
174 175
175 174
175 176
175 180
176 175
176 177
177 25
177 172
177 176
177 178
178 177
178 179
178 183
179 178
179 180
180 175
180 179
180 181
181 162
181 180
181 182
182 181
182 183
183 160
183 163
183 178
183 182
183 184
184 156
184 183
184 185
185 184
185 186
186 185
186 187
186 634
187 186
187 188
187 192
187 210
188 187
188 189
189 13
189 188
189 190
189 208
190 189
190 191
190 195
190 210
191 190
191 192
192 187
192 191
192 193
193 12
193 192
193 194
193 198
194 193
194 195
195 190
195 194
195 196
196 195
196 197
196 201
197 196
197 198
198 193
198 197
198 199
199 198
199 200
199 204
200 199
200 201
201 196
201 200
201 202
202 201
202 203
202 207
203 202
203 204
204 199
204 203
204 205
205 204
205 206
205 210
206 205
206 207
207 202
207 206
207 208
208 189
208 207
208 209
209 208
209 210
210 187
210 190
210 205
210 209
210 211
211 156
211 210
211 212
212 211
212 213
213 212
213 214
213 667
214 213
214 215
214 219
214 237
215 214
215 216
216 31
216 215
216 217
216 235
217 216
217 218
217 222
217 237
218 217
218 219
219 214
219 218
219 220
220 24
220 219
220 221
220 225
221 220
221 222
222 217
222 221
222 223
223 222
223 224
223 228
224 223
224 225
225 220
225 224
225 226
226 30
226 225
226 227
226 231
227 226
227 228
228 223
228 227
228 229
229 228
229 230
229 234
230 229
230 231
231 25
231 226
231 230
231 232
232 231
232 233
232 237
233 232
233 234
234 229
234 233
234 235
235 216
235 234
235 236
236 235
236 237
237 157
237 214
237 217
237 232
237 236
238 239
238 597
238 630
238 663
239 238
239 240
240 239
240 241
240 268
240 295
241 240
241 242
241 321
242 241
242 243
243 242
243 244
243 703
244 243
244 245
244 249
244 267
245 244
245 246
246 25
246 245
246 247
246 265
247 246
247 248
247 252
247 267
248 247
248 249
249 244
249 248
249 250
250 12
250 249
250 251
250 255
251 250
251 252
252 247
252 251
252 253
253 252
253 254
253 258
254 253
254 255
255 250
255 254
255 256
256 24
256 255
256 257
256 261
257 256
257 258
258 253
258 257
258 259
259 258
259 260
259 264
260 259
260 261
261 13
261 256
261 260
261 262
262 261
262 263
262 267
263 262
263 264
264 259
264 263
264 265
265 246
265 264
265 266
266 265
266 267
267 244
267 247
267 262
267 266
267 268
268 240
268 267
268 269
269 268
269 270
270 269
270 271
270 736
271 270
271 272
271 276
271 294
272 271
272 273
273 7
273 272
273 274
273 292
274 273
274 275
274 279
274 294
275 274
275 276
276 271
276 275
276 277
277 30
277 276
277 278
277 282
278 277
278 279
279 274
279 278
279 280
280 279
280 281
280 285
281 280
281 282
282 277
282 281
282 283
283 6
283 282
283 284
283 288
284 283
284 285
285 280
285 284
285 286
286 285
286 287
286 291
287 286
287 288
288 31
288 283
288 287
288 289
289 288
289 290
289 294
290 289
290 291
291 286
291 290
291 292
292 273
292 291
292 293
293 292
293 294
294 271
294 274
294 289
294 293
294 295
295 240
295 294
295 296
296 295
296 297
297 296
297 298
297 769
298 297
298 299
298 303
298 321
299 298
299 300
300 19
300 299
300 301
300 319
301 300
301 302
301 306
301 321
302 301
302 303
303 298
303 302
303 304
304 24
304 303
304 305
304 309
305 304
305 306
306 301
306 305
306 307
307 306
307 308
307 312
308 307
308 309
309 304
309 308
309 310
310 18
310 309
310 311
310 315
311 310
311 312
312 307
312 311
312 313
313 312
313 314
313 318
314 313
314 315
315 25
315 310
315 314
315 316
316 315
316 317
316 321
317 316
317 318
318 313
318 317
318 319
319 300
319 318
319 320
320 319
320 321
321 241
321 298
321 301
321 316
321 320
322 323
322 699
322 732
322 765
323 322
323 324
324 323
324 325
324 352
324 379
325 324
325 326
325 405
326 325
326 327
327 326
327 328
327 805
328 327
328 329
328 333
328 351
329 328
329 330
330 19
330 329
330 331
330 349
331 330
331 332
331 336
331 351
332 331
332 333
333 328
333 332
333 334
334 12
334 333
334 335
334 339
335 334
335 336
336 331
336 335
336 337
337 336
337 338
337 342
338 337
338 339
339 334
339 338
339 340
340 18
340 339
340 341
340 345
341 340
341 342
342 337
342 341
342 343
343 342
343 344
343 348
344 343
344 345
345 13
345 340
345 344
345 346
346 345
346 347
346 351
347 346
347 348
348 343
348 347
348 349
349 330
349 348
349 350
350 349
350 351
351 328
351 331
351 346
351 350
351 352
352 324
352 351
352 353
353 352
353 354
354 353
354 355
354 838
355 354
355 356
355 360
355 378
356 355
356 357
357 19
357 356
357 358
357 376
358 357
358 359
358 363
358 378
359 358
359 360
360 355
360 359
360 361
361 24
361 360
361 362
361 366
362 361
362 363
363 358
363 362
363 364
364 363
364 365
364 369
365 364
365 366
366 361
366 365
366 367
367 18
367 366
367 368
367 372
368 367
368 369
369 364
369 368
369 370
370 369
370 371
370 375
371 370
371 372
372 25
372 367
372 371
372 373
373 372
373 374
373 378
374 373
374 375
375 370
375 374
375 376
376 357
376 375
376 377
377 376
377 378
378 355
378 358
378 373
378 377
378 379
379 324
379 378
379 380
380 379
380 381
381 380
381 382
381 871
382 381
382 383
382 387
382 405
383 382
383 384
384 7
384 383
384 385
384 403
385 384
385 386
385 390
385 405
386 385
386 387
387 382
387 386
387 388
388 24
388 387
388 389
388 393
389 388
389 390
390 385
390 389
390 391
391 390
391 392
391 396
392 391
392 393
393 388
393 392
393 394
394 6
394 393
394 395
394 399
395 394
395 396
396 391
396 395
396 397
397 396
397 398
397 402
398 397
398 399
399 25
399 394
399 398
399 400
400 399
400 401
400 405
401 400
401 402
402 397
402 401
402 403
403 384
403 402
403 404
404 403
404 405
405 325
405 382
405 385
405 400
405 404
406 407
406 801
406 834
406 867
407 406
407 408
408 407
408 409
408 436
408 463
409 408
409 410
409 489
410 409
410 411
411 410
411 412
411 907
412 411
412 413
412 417
412 435
413 412
413 414
414 13
414 413
414 415
414 433
415 414
415 416
415 420
415 435
416 415
416 417
417 412
417 416
417 418
418 24
418 417
418 419
418 423
419 418
419 420
420 415
420 419
420 421
421 420
421 422
421 426
422 421
422 423
423 418
423 422
423 424
424 12
424 423
424 425
424 429
425 424
425 426
426 421
426 425
426 427
427 426
427 428
427 432
428 427
428 429
429 25
429 424
429 428
429 430
430 429
430 431
430 435
431 430
431 432
432 427
432 431
432 433
433 414
433 432
433 434
434 433
434 435
435 412
435 415
435 430
435 434
435 436
436 408
436 435
436 437
437 436
437 438
438 437
438 439
438 940
439 438
439 440
439 444
439 462
440 439
440 441
441 31
441 440
441 442
441 460
442 441
442 443
442 447
442 462
443 442
443 444
444 439
444 443
444 445
445 30
445 444
445 446
445 450
446 445
446 447
447 442
447 446
447 448
448 447
448 449
448 453
449 448
449 450
450 445
450 449
450 451
451 450
451 452
451 456
452 451
452 453
453 448
453 452
453 454
454 453
454 455
454 459
455 454
455 456
456 451
456 455
456 457
457 456
457 458
457 462
458 457
458 459
459 454
459 458
459 460
460 441
460 459
460 461
461 460
461 462
462 439
462 442
462 457
462 461
462 463
463 408
463 462
463 464
464 463
464 465
465 464
465 466
465 973
466 465
466 467
466 471
466 489
467 466
467 468
468 7
468 467
468 469
468 487
469 468
469 470
469 474
469 489
470 469
470 471
471 466
471 470
471 472
472 12
472 471
472 473
472 477
473 472
473 474
474 469
474 473
474 475
475 474
475 476
475 480
476 475
476 477
477 472
477 476
477 478
478 6
478 477
478 479
478 483
479 478
479 480
480 475
480 479
480 481
481 480
481 482
481 486
482 481
482 483
483 13
483 478
483 482
483 484
484 483
484 485
484 489
485 484
485 486
486 481
486 485
486 487
487 468
487 486
487 488
488 487
488 489
489 409
489 466
489 469
489 484
489 488
490 491
490 903
490 936
490 969
491 490
491 492
492 491
492 493
492 526
492 559
493 492
493 494
493 498
493 558
493 591
494 493
494 495
495 154
495 494
495 496
496 495
496 497
496 501
497 496
497 498
498 493
498 497
498 499
499 75
499 498
499 500
500 499
500 501
501 496
501 500
501 535
501 568
502 503
502 507
502 525
502 534
502 567
503 502
503 504
504 40
504 503
504 505
504 523
505 504
505 506
505 510
505 525
506 505
506 507
507 502
507 506
507 508
508 39
508 507
508 509
508 513
509 508
509 510
510 505
510 509
510 511
511 510
511 512
511 516
512 511
512 513
513 508
513 512
513 514
514 513
514 515
514 519
515 514
515 516
516 511
516 515
516 517
517 516
517 518
517 522
518 517
518 519
519 514
519 518
519 520
520 519
520 521
520 525
521 520
521 522
522 517
522 521
522 523
523 504
523 522
523 524
524 523
524 525
525 502
525 505
525 520
525 524
525 526
525 559
525 592
526 492
526 525
526 527
526 531
526 591
527 526
527 528
528 154
528 527
528 529
529 528
529 530
529 534
530 529
530 531
531 526
531 530
531 532
532 102
532 531
532 533
533 532
533 534
534 502
534 529
534 533
534 568
535 501
535 536
535 540
535 558
535 567
536 535
536 537
537 40
537 536
537 538
537 556
538 537
538 539
538 543
538 558
539 538
539 540
540 535
540 539
540 541
541 57
541 540
541 542
541 546
542 541
542 543
543 538
543 542
543 544
544 543
544 545
544 549
545 544
545 546
546 541
546 545
546 547
547 39
547 546
547 548
547 552
548 547
548 549
549 544
549 548
549 550
550 549
550 551
550 555
551 550
551 552
552 58
552 547
552 551
552 553
553 552
553 554
553 558
554 553
554 555
555 550
555 554
555 556
556 537
556 555
556 557
557 556
557 558
558 493
558 535
558 538
558 553
558 557
558 559
558 592
559 492
559 525
559 558
559 560
559 564
560 559
560 561
561 154
561 560
561 562
562 561
562 563
562 567
563 562
563 564
564 559
564 563
564 565
565 129
565 564
565 566
566 565
566 567
567 502
567 535
567 562
567 566
568 501
568 534
568 569
568 573
568 591
569 568
569 570
570 52
570 569
570 571
570 589
571 570
571 572
571 576
571 591
572 571
572 573
573 568
573 572
573 574
574 39
574 573
574 575
574 579
575 574
575 576
576 571
576 575
576 577
577 576
577 578
577 582
578 577
578 579
579 574
579 578
579 580
580 51
580 579
580 581
580 585
581 580
581 582
582 577
582 581
582 583
583 582
583 584
583 588
584 583
584 585
585 40
585 580
585 584
585 586
586 585
586 587
586 591
587 586
587 588
588 583
588 587
588 589
589 570
589 588
589 590
590 589
590 591
591 493
591 526
591 568
591 571
591 586
591 590
591 592
592 525
592 558
592 591
592 593
593 592
593 594
594 593
594 595
594 628
594 661
595 594
595 596
595 600
595 660
595 693
596 595
596 597
597 238
597 596
597 598
598 597
598 599
598 603
599 598
599 600
600 595
600 599
600 601
601 159
601 600
601 602
602 601
602 603
603 598
603 602
603 637
603 670
604 605
604 609
604 627
604 636
604 669
605 604
605 606
606 64
606 605
606 607
606 625
607 606
607 608
607 612
607 627
608 607
608 609
609 604
609 608
609 610
610 57
610 609
610 611
610 615
611 610
611 612
612 607
612 611
612 613
613 612
613 614
613 618
614 613
614 615
615 610
615 614
615 616
616 63
616 615
616 617
616 621
617 616
617 618
618 613
618 617
618 619
619 618
619 620
619 624
620 619
620 621
621 58
621 616
621 620
621 622
622 621
622 623
622 627
623 622
623 624
624 619
624 623
624 625
625 606
625 624
625 626
626 625
626 627
627 604
627 607
627 622
627 626
627 628
627 661
627 694
628 594
628 627
628 629
628 633
628 693
629 628
629 630
630 238
630 629
630 631
631 630
631 632
631 636
632 631
632 633
633 628
633 632
633 634
634 186
634 633
634 635
635 634
635 636
636 604
636 631
636 635
636 670
637 603
637 638
637 642
637 660
637 669
638 637
638 639
639 46
639 638
639 640
639 658
640 639
640 641
640 645
640 660
641 640
641 642
642 637
642 641
642 643
643 45
643 642
643 644
643 648
644 643
644 645
645 640
645 644
645 646
646 645
646 647
646 651
647 646
647 648
648 643
648 647
648 649
649 648
649 650
649 654
650 649
650 651
651 646
651 650
651 652
652 651
652 653
652 657
653 652
653 654
654 649
654 653
654 655
655 654
655 656
655 660
656 655
656 657
657 652
657 656
657 658
658 639
658 657
658 659
659 658
659 660
660 595
660 637
660 640
660 655
660 659
660 661
660 694
661 594
661 627
661 660
661 662
661 666
662 661
662 663
663 238
663 662
663 664
664 663
664 665
664 669
665 664
665 666
666 661
666 665
666 667
667 213
667 666
667 668
668 667
668 669
669 604
669 637
669 664
669 668
670 603
670 636
670 671
670 675
670 693
671 670
671 672
672 64
672 671
672 673
672 691
673 672
673 674
673 678
673 693
674 673
674 675
675 670
675 674
675 676
676 57
676 675
676 677
676 681
677 676
677 678
678 673
678 677
678 679
679 678
679 680
679 684
680 679
680 681
681 676
681 680
681 682
682 63
682 681
682 683
682 687
683 682
683 684
684 679
684 683
684 685
685 684
685 686
685 690
686 685
686 687
687 58
687 682
687 686
687 688
688 687
688 689
688 693
689 688
689 690
690 685
690 689
690 691
691 672
691 690
691 692
692 691
692 693
693 595
693 628
693 670
693 673
693 688
693 692
693 694
694 627
694 660
694 693
694 695
695 694
695 696
696 695
696 697
696 730
696 763
697 696
697 698
697 702
697 762
697 795
698 697
698 699
699 322
699 698
699 700
700 699
700 701
700 705
701 700
701 702
702 697
702 701
702 703
703 243
703 702
703 704
704 703
704 705
705 700
705 704
705 739
705 772
706 707
706 711
706 729
706 738
706 771
707 706
707 708
708 58
708 707
708 709
708 727
709 708
709 710
709 714
709 729
710 709
710 711
711 706
711 710
711 712
712 45
712 711
712 713
712 717
713 712
713 714
714 709
714 713
714 715
715 714
715 716
715 720
716 715
716 717
717 712
717 716
717 718
718 57
718 717
718 719
718 723
719 718
719 720
720 715
720 719
720 721
721 720
721 722
721 726
722 721
722 723
723 46
723 718
723 722
723 724
724 723
724 725
724 729
725 724
725 726
726 721
726 725
726 727
727 708
727 726
727 728
728 727
728 729
729 706
729 709
729 724
729 728
729 730
729 763
729 796
730 696
730 729
730 731
730 735
730 795
731 730
731 732
732 322
732 731
732 733
733 732
733 734
733 738
734 733
734 735
735 730
735 734
735 736
736 270
736 735
736 737
737 736
737 738
738 706
738 733
738 737
738 772
739 705
739 740
739 744
739 762
739 771
740 739
740 741
741 40
741 740
741 742
741 760
742 741
742 743
742 747
742 762
743 742
743 744
744 739
744 743
744 745
745 63
745 744
745 746
745 750
746 745
746 747
747 742
747 746
747 748
748 747
748 749
748 753
749 748
749 750
750 745
750 749
750 751
751 39
751 750
751 752
751 756
752 751
752 753
753 748
753 752
753 754
754 753
754 755
754 759
755 754
755 756
756 64
756 751
756 755
756 757
757 756
757 758
757 762
758 757
758 759
759 754
759 758
759 760
760 741
760 759
760 761
761 760
761 762
762 697
762 739
762 742
762 757
762 761
762 763
762 796
763 696
763 729
763 762
763 764
763 768
764 763
764 765
765 322
765 764
765 766
766 765
766 767
766 771
767 766
767 768
768 763
768 767
768 769
769 297
769 768
769 770
770 769
770 771
771 706
771 739
771 766
771 770
772 705
772 738
772 773
772 777
772 795
773 772
773 774
774 52
774 773
774 775
774 793
775 774
775 776
775 780
775 795
776 775
776 777
777 772
777 776
777 778
778 57
778 777
778 779
778 783
779 778
779 780
780 775
780 779
780 781
781 780
781 782
781 786
782 781
782 783
783 778
783 782
783 784
784 51
784 783
784 785
784 789
785 784
785 786
786 781
786 785
786 787
787 786
787 788
787 792
788 787
788 789
789 58
789 784
789 788
789 790
790 789
790 791
790 795
791 790
791 792
792 787
792 791
792 793
793 774
793 792
793 794
794 793
794 795
795 697
795 730
795 772
795 775
795 790
795 794
795 796
796 729
796 762
796 795
796 797
797 796
797 798
798 797
798 799
798 832
798 865
799 798
799 800
799 804
799 864
799 897
800 799
800 801
801 406
801 800
801 802
802 801
802 803
802 807
803 802
803 804
804 799
804 803
804 805
805 327
805 804
805 806
806 805
806 807
807 802
807 806
807 841
807 874
808 809
808 813
808 831
808 840
808 873
809 808
809 810
810 52
810 809
810 811
810 829
811 810
811 812
811 816
811 831
812 811
812 813
813 808
813 812
813 814
814 45
814 813
814 815
814 819
815 814
815 816
816 811
816 815
816 817
817 816
817 818
817 822
818 817
818 819
819 814
819 818
819 820
820 51
820 819
820 821
820 825
821 820
821 822
822 817
822 821
822 823
823 822
823 824
823 828
824 823
824 825
825 46
825 820
825 824
825 826
826 825
826 827
826 831
827 826
827 828
828 823
828 827
828 829
829 810
829 828
829 830
830 829
830 831
831 808
831 811
831 826
831 830
831 832
831 865
831 898
832 798
832 831
832 833
832 837
832 897
833 832
833 834
834 406
834 833
834 835
835 834
835 836
835 840
836 835
836 837
837 832
837 836
837 838
838 354
838 837
838 839
839 838
839 840
840 808
840 835
840 839
840 874
841 807
841 842
841 846
841 864
841 873
842 841
842 843
843 52
843 842
843 844
843 862
844 843
844 845
844 849
844 864
845 844
845 846
846 841
846 845
846 847
847 57
847 846
847 848
847 852
848 847
848 849
849 844
849 848
849 850
850 849
850 851
850 855
851 850
851 852
852 847
852 851
852 853
853 51
853 852
853 854
853 858
854 853
854 855
855 850
855 854
855 856
856 855
856 857
856 861
857 856
857 858
858 58
858 853
858 857
858 859
859 858
859 860
859 864
860 859
860 861
861 856
861 860
861 862
862 843
862 861
862 863
863 862
863 864
864 799
864 841
864 844
864 859
864 863
864 865
864 898
865 798
865 831
865 864
865 866
865 870
866 865
866 867
867 406
867 866
867 868
868 867
868 869
868 873
869 868
869 870
870 865
870 869
870 871
871 381
871 870
871 872
872 871
872 873
873 808
873 841
873 868
873 872
874 807
874 840
874 875
874 879
874 897
875 874
875 876
876 40
876 875
876 877
876 895
877 876
877 878
877 882
877 897
878 877
878 879
879 874
879 878
879 880
880 57
880 879
880 881
880 885
881 880
881 882
882 877
882 881
882 883
883 882
883 884
883 888
884 883
884 885
885 880
885 884
885 886
886 39
886 885
886 887
886 891
887 886
887 888
888 883
888 887
888 889
889 888
889 890
889 894
890 889
890 891
891 58
891 886
891 890
891 892
892 891
892 893
892 897
893 892
893 894
894 889
894 893
894 895
895 876
895 894
895 896
896 895
896 897
897 799
897 832
897 874
897 877
897 892
897 896
897 898
898 831
898 864
898 897
898 899
899 898
899 900
900 899
900 901
900 934
900 967
901 900
901 902
901 906
901 966
901 999
902 901
902 903
903 490
903 902
903 904
904 903
904 905
904 909
905 904
905 906
906 901
906 905
906 907
907 411
907 906
907 908
908 907
908 909
909 904
909 908
909 943
909 976
910 911
910 915
910 933
910 942
910 975
911 910
911 912
912 46
912 911
912 913
912 931
913 912
913 914
913 918
913 933
914 913
914 915
915 910
915 914
915 916
916 57
916 915
916 917
916 921
917 916
917 918
918 913
918 917
918 919
919 918
919 920
919 924
920 919
920 921
921 916
921 920
921 922
922 45
922 921
922 923
922 927
923 922
923 924
924 919
924 923
924 925
925 924
925 926
925 930
926 925
926 927
927 58
927 922
927 926
927 928
928 927
928 929
928 933
929 928
929 930
930 925
930 929
930 931
931 912
931 930
931 932
932 931
932 933
933 910
933 913
933 928
933 932
933 934
933 967
933 1000
934 900
934 933
934 935
934 939
934 999
935 934
935 936
936 490
936 935
936 937
937 936
937 938
937 942
938 937
938 939
939 934
939 938
939 940
940 438
940 939
940 941
941 940
941 942
942 910
942 937
942 941
942 976
943 909
943 944
943 948
943 966
943 975
944 943
944 945
945 64
945 944
945 946
945 964
946 945
946 947
946 951
946 966
947 946
947 948
948 943
948 947
948 949
949 63
949 948
949 950
949 954
950 949
950 951
951 946
951 950
951 952
952 951
952 953
952 957
953 952
953 954
954 949
954 953
954 955
955 954
955 956
955 960
956 955
956 957
957 952
957 956
957 958
958 957
958 959
958 963
959 958
959 960
960 955
960 959
960 961
961 960
961 962
961 966
962 961
962 963
963 958
963 962
963 964
964 945
964 963
964 965
965 964
965 966
966 901
966 943
966 946
966 961
966 965
966 967
966 1000
967 900
967 933
967 966
967 968
967 972
968 967
968 969
969 490
969 968
969 970
970 969
970 971
970 975
971 970
971 972
972 967
972 971
972 973
973 465
973 972
973 974
974 973
974 975
975 910
975 943
975 970
975 974
976 909
976 942
976 977
976 981
976 999
977 976
977 978
978 40
978 977
978 979
978 997
979 978
979 980
979 984
979 999
980 979
980 981
981 976
981 980
981 982
982 45
982 981
982 983
982 987
983 982
983 984
984 979
984 983
984 985
985 984
985 986
985 990
986 985
986 987
987 982
987 986
987 988
988 39
988 987
988 989
988 993
989 988
989 990
990 985
990 989
990 991
991 990
991 992
991 996
992 991
992 993
993 46
993 988
993 992
993 994
994 993
994 995
994 999
995 994
995 996
996 991
996 995
996 997
997 978
997 996
997 998
998 997
998 999
999 901
999 934
999 976
999 979
999 994
999 998
999 1000
1000 933
1000 966
1000 999
1000 1001
1001 1000
1001 1002
1002 1
1002 1001
-1
EOF